Running for instance ./models/r108.txt
Generating routes...
Execution time:  3.191489  seconds
Academic license - for non-commercial use only
Warning: constraint name "Cliente esta na rota x1" has a space
Optimize a model with 26 rows, 10000 columns and 59820 nonzeros
Variable types: 0 continuous, 10000 integer (0 binary)
Coefficient statistics:
  Matrix range     [1e+00, 1e+00]
  Objective range  [2e+01, 2e+02]
  Bounds range     [1e+00, 1e+00]
  RHS range        [1e+00, 2e+01]
Found heuristic solution: objective 779.7079134
Presolve removed 1 rows and 2735 columns
Presolve time: 0.07s
Presolved: 25 rows, 7265 columns, 36840 nonzeros
Found heuristic solution: objective 733.6891396
Variable types: 0 continuous, 7265 integer (7265 binary)

Root relaxation: objective 4.484180e+02, 105 iterations, 0.01 seconds

    Nodes    |    Current Node    |     Objective Bounds      |     Work
 Expl Unexpl |  Obj  Depth IntInf | Incumbent    BestBd   Gap | It/Node Time

     0     0  448.41797    0   20  733.68914  448.41797  38.9%     -    0s
H    0     0                     540.6778273  448.41797  17.1%     -    0s
H    0     0                     488.5847666  448.41797  8.22%     -    0s
     0     0  448.41797    0   20  488.58477  448.41797  8.22%     -    0s
H    0     0                     472.8734574  448.41797  5.17%     -    0s
     0     0  452.09465    0   18  472.87346  452.09465  4.39%     -    0s
H    0     0                     456.8455045  452.09465  1.04%     -    0s
     0     0     cutoff    0       456.84550  456.84550  0.00%     -    0s

Explored 1 nodes (183 simplex iterations) in 0.22 seconds
Thread count was 8 (of 8 available processors)

Solution count 5: 456.846 472.873 488.585 ... 733.689

Optimal solution found (tolerance 1.00e-04)
Best objective 4.568455044710e+02, best bound 4.568455044710e+02, gap 0.0000%

Routes:
18 7 19 11 8 17 16 14 6
2 15 13 5
21 22 23 24 4 25
12 3 9 20 10 1

Distance: 456.845504471
Execution time:  4.403825  seconds
